data/hard_10.dzn
num_nodi = 10;
ufficio_postale = 9;
dim_borsa = 19;
max_step = 40;
elenco_lettere = [11, 11, 5, 19, 6, 15, 13, 11, 0, 0];
distanze = [|0, 14, 20, 6, 18, 4, 9, 19, 18, 10
|17, 0, 2, 1, 10, 3, 5, 13, 13, 13
|14, 22, 0, 3, 4, 12, 14, 5, 16, 14
|1, 20, 15, 0, 22, 8, 14, 15, 4, 23
|20, 18, 13, 6, 0, 6, 14, 17, 1, 3
|13, 9, 3, 11, 10, 0, 4, 12, 24, 18
|25, 23, 10, 13, 17, 17, 0, 4, 8, 25
|9, 18, 17, 15, 17, 14, 4, 0, 12, 24
|11, 19, 20, 11, 2, 24, 20, 1, 0, 7
|17, 15, 18, 16, 12, 12, 1, 11, 16, 0
|];
