data/hard_10.lp
node(1..10).

ufficio_postale(9).

dim_borsa(19).

time(1..40).

lettere(1,11).
lettere(2,11).
lettere(3,5).
lettere(4,19).
lettere(5,6).
lettere(6,15).
lettere(7,13).
lettere(8,11).
lettere(9,0).
lettere(10,0).

costo_arco(1, 1, 0).
costo_arco(1, 2, 14).
costo_arco(1, 3, 20).
costo_arco(1, 4, 6).
costo_arco(1, 5, 18).
costo_arco(1, 6, 4).
costo_arco(1, 7, 9).
costo_arco(1, 8, 19).
costo_arco(1, 9, 18).
costo_arco(1, 10, 10).

costo_arco(2, 1, 17).
costo_arco(2, 2, 0).
costo_arco(2, 3, 2).
costo_arco(2, 4, 1).
costo_arco(2, 5, 10).
costo_arco(2, 6, 3).
costo_arco(2, 7, 5).
costo_arco(2, 8, 13).
costo_arco(2, 9, 13).
costo_arco(2, 10, 13).

costo_arco(3, 1, 14).
costo_arco(3, 2, 22).
costo_arco(3, 3, 0).
costo_arco(3, 4, 3).
costo_arco(3, 5, 4).
costo_arco(3, 6, 12).
costo_arco(3, 7, 14).
costo_arco(3, 8, 5).
costo_arco(3, 9, 16).
costo_arco(3, 10, 14).

costo_arco(4, 1, 1).
costo_arco(4, 2, 20).
costo_arco(4, 3, 15).
costo_arco(4, 4, 0).
costo_arco(4, 5, 22).
costo_arco(4, 6, 8).
costo_arco(4, 7, 14).
costo_arco(4, 8, 15).
costo_arco(4, 9, 4).
costo_arco(4, 10, 23).

costo_arco(5, 1, 20).
costo_arco(5, 2, 18).
costo_arco(5, 3, 13).
costo_arco(5, 4, 6).
costo_arco(5, 5, 0).
costo_arco(5, 6, 6).
costo_arco(5, 7, 14).
costo_arco(5, 8, 17).
costo_arco(5, 9, 1).
costo_arco(5, 10, 3).

costo_arco(6, 1, 13).
costo_arco(6, 2, 9).
costo_arco(6, 3, 3).
costo_arco(6, 4, 11).
costo_arco(6, 5, 10).
costo_arco(6, 6, 0).
costo_arco(6, 7, 4).
costo_arco(6, 8, 12).
costo_arco(6, 9, 24).
costo_arco(6, 10, 18).

costo_arco(7, 1, 25).
costo_arco(7, 2, 23).
costo_arco(7, 3, 10).
costo_arco(7, 4, 13).
costo_arco(7, 5, 17).
costo_arco(7, 6, 17).
costo_arco(7, 7, 0).
costo_arco(7, 8, 4).
costo_arco(7, 9, 8).
costo_arco(7, 10, 25).

costo_arco(8, 1, 9).
costo_arco(8, 2, 18).
costo_arco(8, 3, 17).
costo_arco(8, 4, 15).
costo_arco(8, 5, 17).
costo_arco(8, 6, 14).
costo_arco(8, 7, 4).
costo_arco(8, 8, 0).
costo_arco(8, 9, 12).
costo_arco(8, 10, 24).

costo_arco(9, 1, 11).
costo_arco(9, 2, 19).
costo_arco(9, 3, 20).
costo_arco(9, 4, 11).
costo_arco(9, 5, 2).
costo_arco(9, 6, 24).
costo_arco(9, 7, 20).
costo_arco(9, 8, 1).
costo_arco(9, 9, 0).
costo_arco(9, 10, 7).

costo_arco(10, 1, 17).
costo_arco(10, 2, 15).
costo_arco(10, 3, 18).
costo_arco(10, 4, 16).
costo_arco(10, 5, 12).
costo_arco(10, 6, 12).
costo_arco(10, 7, 1).
costo_arco(10, 8, 11).
costo_arco(10, 9, 16).
costo_arco(10, 10, 0).

